3 24 1 10
12 4 1 6 10 5 17 20 10 13 6 5 6 5 8 13 19 18 20 3 15 18 20 9 
12.2 2.65 4.55 5.68 6.96 1.99 11.57 4.32 11.35 10.54 10.85 7.9 7.81 10.94 2.29 1.66 15.35 14.69 3.52 6.45 15.67 9.67 2.04 0.12 
8 8 8 8 8 8 8 8 8 8 8 8 8 8 8 8 8 8 8 8 8 8 8 8 
15.69 7.82 6.02 15.1 12.97 7.47 0.12 2.11 7.12 5.1 3.98 2.2 11.11 10.73 10.61 13.66 7.39 0.73 11.31 0.35 15.65 3.63 1.49 3.29 
1 1 1 1 1 1 1 1 1 1 1 1 1 1 1 1 1 1 1 1 1 1 1 1 
1 1 1 1 1 1 1 1 1 1 1 1 1 1 1 1 1 1 1 1 1 1 1 1 
1 1 1 1 1 1 1 1 1 1 1 1 1 1 1 1 1 1 1 1 1 1 1 1 
0.01 0.01 0.01 0.01 0.01 0.01 0.01 0.01 0.01 0.01 0.01 0.01 0.01 0.01 0.01 0.01 0.01 0.01 0.01 0.01 0.01 0.01 0.01 0.01 
0.02 0.02 0.02 0.02 0.02 0.02 0.02 0.02 0.02 0.02 0.02 0.02 0.02 0.02 0.02 0.02 0.02 0.02 0.02 0.02 0.02 0.02 0.02 0.02 
1 1 1 1 1 1 1 1 1 1 1 1 1 1 1 1 1 1 1 1 1 1 1 1 
